% demand
num_movements = 28;
loading_factor = [1750, 1600, 1750, 1500, 1350, 1900, 1800, 1850, 950, 900, 850, 1350, 1000, 1350, 1600, 1450, 1900, 1600, 900, 1650, 1900, 1900, 1950, 1950, 1300, 1550, 1100, 1100];
pickup_time = [0, 0, 0, 0, 1, 2, 2, 3, 4, 4, 4, 4, 4, 4, 5, 5, 6, 7, 7, 7, 8, 8, 9, 9, 10, 10, 10, 10];
delivery_time = [1, 1, 1, 1, 4, 4, 4, 4, 5, 8, 6, 5, 5, 5, 8, 7, 7, 8, 8, 8, 9, 10, 11, 10, 11, 12, 12, 11];

% transporter definition
total_capacity = 7000;
num_decks = 3;
capacity = [3000, 1000, 3000];

% ways out of decks
num_ways_out = 1;
paths_out = array3d(decks, ways_out, decks, [
% ways out of deck d1
2, 3, 0, 

% ways out of deck d2
3, 0, 0, 

% ways out of deck d3
0, 0, 0,	

]);

